c This is an instance of the exact track of PACE 2020 Challenge, see https://pacechallenge.org/2020/ 
c TYPE: biology 
c ORIGIN: networkrepository.com 
c DESCRIPTION: ENZYMES is a dataset of protein tertiary structures obtained from (Borgwardt et al., 2005)  consisting of 600 enzymes from the BRENDA enzyme database (Schomburg et al., 2004). Refernces: K. M. Borgwardt, C. S. Ong, S. Schoenauer, S. V. N. Vishwanathan, A. J. Smola, and H. P. Kriegel. Protein function prediction via graph kernels. Bioinformatics, 21(Suppl 1):i47–i56, Jun 2005. I. Schomburg, A. Chang, C. Ebeling, M. Gremse, C. Heldt, G. Huhn, and D. Schomburg. Brenda, the enzyme database: updates and major new developments. Nucleic Acids Research, 32D:431–433, 2020 
p tdp 88 133
1 2
1 15
1 25
1 50
1 3
1 51
1 52
1 53
2 3
3 16
3 26
3 31
4 5
4 54
5 6
5 7
5 8
6 17
6 27
6 33
6 61
7 17
7 33
7 72
8 27
8 33
8 80
9 10
9 13
9 14
10 11
10 12
11 13
11 22
11 23
11 20
11 14
11 24
12 49
13 19
13 20
13 21
14 38
15 16
16 51
16 52
16 53
17 18
18 58
19 22
19 30
20 23
20 37
21 71
22 29
23 36
24 68
25 26
26 52
27 28
28 59
29 79
30 76
31 32
31 53
33 34
33 35
34 60
35 86
36 67
37 83
38 39
39 40
39 41
39 42
39 43
40 44
40 46
40 47
40 48
41 46
41 69
42 46
42 47
42 77
43 46
43 48
43 84
44 45
46 68
47 76
48 83
49 64
49 67
50 54
50 55
50 56
50 57
51 55
52 56
53 57
54 58
54 59
54 60
55 58
56 58
56 59
57 58
57 60
61 62
62 63
63 64
64 65
64 66
65 74
65 71
65 75
66 75
66 88
66 67
67 71
67 79
69 70
72 73
73 74
75 82
75 79
77 78
80 81
81 82
84 85
86 87
87 88
